c --- [ banner ] -------------------------------------------------------------
c 
c CaDiCaL Radically Simplified CDCL SAT Solver
c Copyright (c) 2016-2021 A. Biere, M. Fleury, N. Froleyks
c 
c Version 1.5.2 ca9bff05c11bde5eae4912f9932871d1527e61d8
c g++ (GCC) 9.3.0 -Wall -Wextra -O3 -DNDEBUG
c Tue Mar 15 14:40:50 EDT 2022 Linux gra-login1 3.10.0-1160.36.2.el7.x86_64 x86_64
c 
c --- [ limit ] --------------------------------------------------------------
c 
c setting conflict limit to 200000 conflicts (due to '200000')
c 
c --- [ parsing input ] ------------------------------------------------------
c 
c reading DIMACS file from '5.cubes0.adj'
c opening file to read '5.cubes0.adj'
c found 'p cnf 4560 450657' header
c parsed 450657 clauses in 3.18 seconds process time
c closing file '5.cubes0.adj'
c after reading 251006262 bytes 239.4 MB
c 
c --- [ options ] ------------------------------------------------------------
c 
c all options are set to their default value
c 
c --- [ solving ] ------------------------------------------------------------
c 
c time measured in process time since initialization
c 
c  seconds   reductions  redundant  irredundant
c          MB    restarts       trail      variables
c           level   conflicts       glue        remaining
c 
c *  3.19 266  0 0   0    0    0  0% 0 449985 3120 68%
c {  3.41 279  0 0   0    0    0  0% 0 449985 3120 68%
c i  3.73 285 39 0   9   96   74 54% 13 449985 3119 68%
c i  3.76 285 39 0  12  117   89 55% 14 449985 3118 68%
c i  3.81 285 30 0  14  177  115 55% 11 449985 3117 68%
c i  3.81 285 29 0  14  187  124 55% 11 449985 3116 68%
c i  3.82 285 28 0  14  196  129 55% 11 449985 3115 68%
c i  3.82 285 27 0  14  213  137 55% 11 449985 3114 68%
c i  3.85 285 22 0  14  295  184 54% 10 449985 3113 68%
c -  4.52 275 23 1  14  300  188 54% 10 70139 3113 68%
c i  4.53 275 23 1  14  301  188 54% 10 70139 3112 68%
c i  4.53 275 23 1  14  307  193 54% 10 70139 3111 68%
c i  4.54 275 24 1  19  330  212 54% 12 70139 3110 68%
c i  4.54 275 24 1  19  331  212 54% 12 70139 3109 68%
c i  4.54 275 24 1  20  332  212 54% 12 70139 3108 68%
c i  4.55 275 24 1  24  346  222 54% 12 70139 3107 68%
c i  4.55 275 24 1  24  347  222 54% 12 70139 3106 68%
c i  4.55 275 24 1  24  348  222 54% 12 70139 3105 68%
c i  4.55 275 24 1  25  349  222 54% 12 70139 3104 68%
c i  4.55 275 24 1  25  350  222 54% 12 70139 3103 68%
c 
c  seconds   reductions  redundant   irredundant
c          MB    restarts       trail      variables
c           level   conflicts       glue        remaining
c 
c i  4.55 275 24 1  25  351  222 54% 12 70139 3102 68%
c i  4.55 275 24 1  26  352  222 54% 12 70139 3101 68%
c i  4.57 275 26 1  31  373  239 54% 13 70139 3100 68%
c i  4.58 275 26 1  38  396  258 54% 13 70139 3099 68%
c i  4.58 275 26 1  39  398  259 54% 13 70139 3098 68%
c i  4.59 275 24 1  41  434  262 53% 12 70139 3097 68%
c i  4.59 275 24 1  41  441  266 53% 12 70139 3096 68%
c i  4.59 275 24 1  41  442  266 53% 12 70139 3095 68%
c i  4.59 275 24 1  41  448  270 53% 12 70139 3094 68%
c i  4.59 275 24 1  41  450  271 54% 12 70139 3093 68%
c i  4.59 275 23 1  41  453  269 54% 12 70139 3092 68%
c i  4.59 275 23 1  41  467  280 54% 12 70139 3091 68%
c i  4.60 275 23 1  42  509  303 53% 12 70139 3090 68%
c i  4.61 275 23 1  42  522  305 53% 12 70139 3089 68%
c i  4.61 275 22 1  42  554  310 53% 12 70139 3088 68%
c i  4.61 275 22 1  42  558  313 53% 12 70139 3087 68%
c i  4.61 275 22 1  42  562  316 53% 12 70139 3086 68%
c i  4.61 275 23 1  43  572  324 53% 12 70139 3085 68%
c i  4.62 275 23 1  44  573  324 53% 12 70139 3084 68%
c i  4.62 275 23 1  44  575  325 53% 12 70139 3083 68%
c 
c  seconds   reductions  redundant   irredundant
c          MB    restarts       trail      variables
c           level   conflicts       glue        remaining
c 
c i  4.62 275 23 1  45  576  325 53% 12 70139 3082 68%
c i  4.62 275 23 1  45  577  325 53% 12 70139 3081 68%
c i  4.62 275 23 1  45  578  325 53% 12 70139 3080 68%
c i  4.62 275 23 1  45  579  325 53% 12 70139 3079 68%
c i  4.63 275 23 1  53  658  371 53% 12 70139 3078 68%
c i  4.63 275 23 1  53  671  379 53% 12 70139 3077 67%
c i  4.63 275 22 1  53  674  381 53% 12 70139 3076 67%
c i  4.66 275 22 1  55  788  449 53% 12 70139 3075 67%
c i  4.67 275 21 1  55  849  478 53% 11 70139 3074 67%
c i  4.68 275 20 1  55  876  495 53% 11 70139 3073 67%
c i  4.69 275 20 1  55  885  500 53% 11 70139 3072 67%
c -  4.74 277 20 2  55  900  411 53% 11 70016 3072 67%
c }  4.76 277 19 2  55 1001  457 53% 11 70016 3072 67%
c [  4.76 277  0 2  55 1001  457  0% 0 70016 3072 67%
c O  4.77 277  7 2  55 1002  458 53% 7 70016 3072 67%
c i  4.78 277  7 2  55 1044  470 54% 5 70016 3071 67%
c i  4.78 277  8 2  55 1081  481 54% 7 70016 3070 67%
c i  4.82 277  8 2  55 1384  537 54% 7 70016 3069 67%
c i  4.82 277  8 2  55 1385  537 54% 7 70016 3068 67%
c i  4.82 277  8 2  55 1427  543 54% 7 70016 3067 67%
c 
c  seconds   reductions  redundant  irredundant
c          MB    restarts       trail     variables
c           level   conflicts       glue       remaining
c 
c i  4.85 277  9 2  55 1684  633 55% 8 70016 3066 67%
c i  4.85 277  9 2  55 1698  640 55% 8 70016 3065 67%
c -  4.89 289  9 3  55 1800  533 55% 8 69995 3065 67%
c i  4.91 289  8 3  56 2088  591 55% 7 69995 3055 67%
c i  4.95 276  8 3  56 2094  342 30% 7 68544 3054 67%
c i  4.99 276  9 3  56 2295  485 24% 8 68544 3053 67%
c i  5.03 276 10 3  56 2557  619 27% 8 68544 3052 67%
c i  5.03 276 10 3  56 2576  629 27% 8 68544 3051 67%
c i  5.03 276 10 3  56 2578  629 27% 8 68544 3050 67%
c i  5.03 276 10 3  56 2586  635 27% 8 68544 3049 67%
c i  5.04 276 10 3  56 2613  644 27% 8 68544 3048 67%
c ]  5.10 276 10 3  56 3001  878 28% 9 68544 3048 67%
c {  5.10 276 19 3  56 3001  878 78% 11 68544 3048 67%
c -  5.12 287 19 4  56 3001  772 78% 11 68523 3048 67%
c F  5.13 287 19 4  56 3003  774 78% 11 68523 3048 67%
c i  5.19 287 16 4  56 3323  872 66% 10 68523 3047 67%
c i  5.19 287 16 4  56 3335  883 65% 10 68523 3046 67%
c i  5.20 287 16 4  56 3339  886 65% 10 68523 3045 67%
c i  5.22 287 16 4  56 3498  965 61% 10 68523 3044 67%
c i  5.25 287 15 4  56 3664 1037 58% 9 68523 3043 67%
c 
c  seconds   reductions  redundant  irredundant
c          MB    restarts       trail     variables
c           level   conflicts       glue       remaining
c 
c i  5.25 287 15 4  56 3669 1041 58% 9 68523 3042 67%
c i  5.25 287 15 4  56 3670 1041 58% 9 68523 3041 67%
c i  5.25 287 15 4  56 3671 1041 58% 9 68523 3040 67%
c i  5.25 287 15 4  56 3672 1041 58% 9 68523 3039 67%
c i  5.25 287 15 4  56 3673 1041 58% 9 68523 3038 67%
c i  5.27 287 15 4  62 3755 1085 57% 9 68523 3037 67%
c i  5.28 287 15 4  62 3900 1115 55% 9 68523 3036 67%
c i  5.33 287 14 4  64 4204 1259 51% 9 68523 3035 67%
c i  5.37 287 14 4  64 4418 1316 49% 9 68523 2975 65%
c -  5.45 263 14 5  64 4501  539 49% 8 65784 2975 65%
c d  5.57 263 13 5  93 5000  792 46% 9 65070 2954 65%
c 2  5.58 263 13 5  93 5000 2541 46% 9 65013 2954 65%
c p  5.83 263 13 5  93 5000 9570 46% 9 65013 2922 64%
c d  5.87 263 13 5  93 5000 8575 46% 9 63596 2917 64%
c #  6.11 263 13 5 243 6007 9048 42% 9 63596 2917 64%
c -  6.22 263 13 6 246 6301 1547 41% 9 63596 2917 64%
c }  6.32 263 13 6 250 7002 1816 39% 9 63596 2917 64%
c [  6.32 263 10 6 250 7002 1816 28% 9 63596 2917 64%
c -  6.55 263 10 7 251 8402 1762 29% 9 63596 2917 64%
c i  6.75 263 10 7 252 9566 2104 29% 9 63596 2909 64%
c 
c  seconds   reductions   redundant  irredundant
c          MB    restarts        trail     variables
c           level    conflicts       glue       remaining
c 
c I  6.82 263 10 7 252 10010 2237 29% 9 63596 2909 64%
c -  7.00 263 10 8 253 10808 1272 30% 9 54893 2909 64%
c i  7.32 263 10 8 254 13174 1781 30% 9 54893 2885 63%
c -  7.40 263 10 9 255 13508  943 30% 9 38321 2885 63%
c i  7.46 263 10 9 255 14106 1154 30% 9 38321 2871 63%
c i  7.46 263 10 9 255 14107 1154 30% 9 38321 2824 62%
c s  7.54 263 10 9 255 14348 1206 30% 9 36244 2824 62%
c v  7.64 263 10 9 255 14348 1206 30% 9 36150 2824 62%
c w  7.64 263 10 9 255 14348 1201 30% 9 36150 2821 62%
c t  7.65 263 10 9 255 14348 1185 30% 9 36088 2821 62%
c e  7.67 263 10 9 255 14348 1086 30% 9 24594 327  7%
c s  7.69 263 10 9 255 14348 1086 30% 9 24582 327  7%
c d  7.80 263 10 9 255 15000  943 64% 9 23482 323  7%
c 3  7.80 263 10 9 255 15000 1372 64% 9 23482 323  7%
c 2  7.80 263 10 9 255 15000 1407 64% 9 23479 314  7%
c p  7.85 263 10 9 255 15000 2203 64% 9 23479 292  6%
c ]  7.85 263 10 9 255 15002 2205 64% 9 23479 292  6%
c {  7.85 263 13 9 255 15002 2205 365% 9 23479 292  6%
c B  7.85 263 13 9 255 15012 2206 364% 9 23479 292  6%
c i  7.92 263 12 9 279 15654 2453 329% 9 23479 285  6%
c 
c  seconds   reductions   redundant   irredundant
c          MB    restarts        trail      variables
c           level    conflicts        glue      remaining
c 
c i  7.93 263 12 9 279 15661 2457 329% 9 23479 284  6%
c i  8.00 263 12 9 294 16338 2695 300% 8 23479 270  6%
c i  8.02 263 12 9 294 16468 2752 295% 8 23479 246  5%
c i  8.02 263 11 9 294 16504 2761 293% 8 23479 230  5%
c i  8.02 263 11 9 294 16505 2761 293% 8 23479 197  4%
c i  8.02 263 11 9 294 16506 2761 293% 8 23479 185  4%
c }  8.02 263 11 9 294 16509 2762 293% 8 23479 167  4%
c 0  8.02 263 11 9 294 16509 2762 293% 8 23479 167  4%
c 
c --- [ writing output ] -----------------------------------------------------
c 
c writing simplified CNF to DIMACS file 'simp/5.cubes0.adj.simp1'
c *  8.02 263 11 9 294 16509 2762 293% 8 23479 167  4%
c opening file to write 'simp/5.cubes0.adj.simp1'
c writing 'p cnf 4560 1' header
c closing file 'simp/5.cubes0.adj.simp1'
c after writing 15 bytes 0.0 MB
c wrote 1 clauses in 0.00 seconds process time
c 
c --- [ writing extension ] --------------------------------------------------
c 
c writing extension stack to 'simp/5.cubes0.adj.ext1'
c opening file to write 'simp/5.cubes0.adj.ext1'
c closing file 'simp/5.cubes0.adj.ext1'
c after writing 0 bytes 0.0 MB
c wrote 0 witnesses in 0.00 seconds process time
c 
c --- [ result ] -------------------------------------------------------------
c 
s UNSATISFIABLE
c 
c --- [ run-time profiling ] -------------------------------------------------
c 
c process time taken by individual solving procedures
c (percentage relative to process time for solving)
c 
c         4.22   87.32% search
c         3.18   65.81% parse
c         2.42   49.99% unstable
c         1.59   32.80% stable
c         0.61   12.68% simplify
c         0.29    5.95% probe
c         0.22    4.53% lucky
c         0.10    2.13% vivify
c         0.06    1.24% subsume
c         0.05    1.00% elim
c         0.02    0.37% ternary
c   =================================
c         4.84   60.29% solve
c 
c last line shows process time for solving
c (percentage relative to total process time)
c 
c --- [ statistics ] ---------------------------------------------------------
c 
c chronological:              2583        15.65 %  of conflicts
c conflicts:                 16509      3412.10    per second
c decisions:                 25437      5257.35    per second
c eliminated:                 2494        54.69 %  of all variables
c fixed:                      1869        40.99 %  of all variables
c learned:                   16283        98.63 %  per conflict
c learned_lits:             823065       100.00 %  learned literals
c minimized:                     0         0.00 %  learned literals
c shrunken:                 560630        68.11 %  learned literals
c minishrunken:              37343         4.54 %  learned literals
c propagations:            2465692         0.51 M  per second
c reduced:                    1529         9.26 %  per conflict
c rephased:                      5      3301.80    interval
c restarts:                    294        56.15    interval
c stabilizing:                   2        60.57 %  of conflicts
c substituted:                  30         0.66 %  of all variables
c subsumed:                  12500         1.25 %  of all clauses
c strengthened:               1261         0.13 %  of all clauses
c ternary:                    2233         0.67 %  of resolved
c vivified:                     93         0.01 %  of all clauses
c weakened:                   4474         2.70    average size
c 
c seconds are measured in process time for solving
c 
c --- [ resources ] ----------------------------------------------------------
c 
c total process time since initialization:         8.03    seconds
c total real time since initialization:            8.09    seconds
c maximum resident set size of process:          289.07    MB
c 
c --- [ shutting down ] ------------------------------------------------------
c 
c exit 20
WARNING! DIMACS header mismatch: wrong number of variables.
============================[ Problem Statistics ]=============================
|                                                                             |
|  Number of variables:             0                                         |
|  Number of clauses:               0                                         |
|  Parse time:                   0.00 s                                       |
|  Simplification time:          0.00 s                                       |
|                                                                             |
===============================================================================
Solved by simplification
database reductions   : 0
restarts              : 0
conflicts             : 0              (-nan /sec)
decisions             : 0              (-nan % random) (-nan /sec)
propagations          : 0              (-nan /sec)
conflict literals     : 0              (-nan % deleted)
actual reward         : -nan
Memory used           : 5.00 MB
CPU time              : 0 s

UNSATISFIABLE
